p cnf 430 1488
-191 -116 0
-191 135 0
-191 46 0
-191 140 0
-191 72 0
191 116 -135 -46 -140 -72 0
-192 -143 0
-192 27 0
-192 131 0
-192 130 0
-192 -151 0
192 143 -27 -131 -130 151 0
-193 43 0
-193 69 0
-193 -55 0
-193 13 0
-193 -64 0
193 -43 -69 55 -13 64 0
-194 -139 0
-194 77 0
-194 7 0
-194 123 0
-194 -59 0
194 139 -77 -7 -123 59 0
-195 -65 0
-195 157 0
-195 126 0
-195 -82 0
-195 142 0
195 65 -157 -126 82 -142 0
191 192 193 194 195 0
-196 132 0
-196 82 0
-196 52 0
-196 -127 0
-196 -183 0
196 -132 -82 -52 127 183 0
-197 -163 0
-197 26 0
-197 99 0
-197 171 0
-197 -35 0
197 163 -26 -99 -171 35 0
-198 -121 0
-198 51 0
-198 175 0
-198 129 0
-198 -147 0
198 121 -51 -175 -129 147 0
-199 -167 0
-199 141 0
-199 -17 0
-199 28 0
-199 40 0
199 167 -141 17 -28 -40 0
-200 -36 0
-200 -25 0
-200 -69 0
-200 -180 0
-200 9 0
200 36 25 69 180 -9 0
196 197 198 199 200 0
-201 7 0
-201 50 0
-201 -152 0
-201 167 0
-201 -103 0
201 -7 -50 152 -167 103 0
-202 -163 0
-202 -96 0
-202 32 0
-202 -9 0
-202 -175 0
202 163 96 -32 9 175 0
-203 -20 0
-203 48 0
-203 -41 0
-203 -155 0
-203 -153 0
203 20 -48 41 155 153 0
-204 182 0
-204 63 0
-204 118 0
-204 -95 0
-204 -23 0
204 -182 -63 -118 95 23 0
-205 -31 0
-205 -56 0
-205 3 0
-205 85 0
-205 -109 0
205 31 56 -3 -85 109 0
201 202 203 204 205 0
-206 -45 0
-206 174 0
-206 82 0
-206 87 0
-206 -15 0
206 45 -174 -82 -87 15 0
-207 173 0
-207 97 0
-207 28 0
-207 -77 0
-207 105 0
207 -173 -97 -28 77 -105 0
-208 -180 0
-208 -98 0
-208 118 0
-208 -179 0
-208 -126 0
208 180 98 -118 179 126 0
-209 72 0
-209 64 0
-209 -103 0
-209 -179 0
-209 112 0
209 -72 -64 103 179 -112 0
-210 168 0
-210 65 0
-210 -148 0
-210 174 0
-210 -5 0
210 -168 -65 148 -174 5 0
206 207 208 209 210 0
-211 -111 0
-211 168 0
-211 -143 0
-211 83 0
-211 29 0
211 111 -168 143 -83 -29 0
-212 -49 0
-212 43 0
-212 154 0
-212 88 0
-212 -63 0
212 49 -43 -154 -88 63 0
-213 -69 0
-213 147 0
-213 -175 0
-213 -112 0
-213 -127 0
213 69 -147 175 112 127 0
-214 -99 0
-214 -100 0
-214 75 0
-214 -54 0
-214 -57 0
214 99 100 -75 54 57 0
-215 -63 0
-215 119 0
-215 -2 0
-215 26 0
-215 -181 0
215 63 -119 2 -26 181 0
211 212 213 214 215 0
-216 -166 0
-216 87 0
-216 136 0
-216 -3 0
-216 155 0
216 166 -87 -136 3 -155 0
-217 28 0
-217 -7 0
-217 -156 0
-217 -121 0
-217 151 0
217 -28 7 156 121 -151 0
-218 92 0
-218 -132 0
-218 -51 0
-218 123 0
-218 97 0
218 -92 132 51 -123 -97 0
-219 -36 0
-219 165 0
-219 135 0
-219 16 0
-219 -115 0
219 36 -165 -135 -16 115 0
-220 69 0
-220 32 0
-220 -177 0
-220 -101 0
-220 -185 0
220 -69 -32 177 101 185 0
216 217 218 219 220 0
-221 151 0
-221 58 0
-221 -169 0
-221 80 0
-221 22 0
221 -151 -58 169 -80 -22 0
-222 -177 0
-222 178 0
-222 -105 0
-222 -67 0
-222 68 0
222 177 -178 105 67 -68 0
-223 7 0
-223 91 0
-223 -103 0
-223 -110 0
-223 124 0
223 -7 -91 103 110 -124 0
-224 118 0
-224 154 0
-224 -42 0
-224 37 0
-224 83 0
224 -118 -154 42 -37 -83 0
-225 -63 0
-225 20 0
-225 -124 0
-225 -127 0
-225 166 0
225 63 -20 124 127 -166 0
221 222 223 224 225 0
-226 142 0
-226 155 0
-226 -146 0
-226 171 0
-226 -190 0
226 -142 -155 146 -171 190 0
-227 118 0
-227 33 0
-227 65 0
-227 8 0
-227 -167 0
227 -118 -33 -65 -8 167 0
-228 -148 0
-228 -12 0
-228 70 0
-228 -33 0
-228 112 0
228 148 12 -70 33 -112 0
-229 -126 0
-229 -131 0
-229 -168 0
-229 99 0
-229 150 0
229 126 131 168 -99 -150 0
-230 -188 0
-230 -39 0
-230 139 0
-230 -56 0
-230 72 0
230 188 39 -139 56 -72 0
226 227 228 229 230 0
-231 6 0
-231 101 0
-231 164 0
-231 35 0
-231 -19 0
231 -6 -101 -164 -35 19 0
-232 -13 0
-232 118 0
-232 -55 0
-232 70 0
-232 4 0
232 13 -118 55 -70 -4 0
-233 105 0
-233 183 0
-233 -99 0
-233 82 0
-233 33 0
233 -105 -183 99 -82 -33 0
-234 -5 0
-234 168 0
-234 125 0
-234 -44 0
-234 68 0
234 5 -168 -125 44 -68 0
-235 172 0
-235 -97 0
-235 166 0
-235 -18 0
-235 -79 0
235 -172 97 -166 18 79 0
231 232 233 234 235 0
-236 186 0
-236 -125 0
-236 -112 0
-236 -127 0
-236 -92 0
236 -186 125 112 127 92 0
-237 -25 0
-237 -86 0
-237 -127 0
-237 -178 0
-237 61 0
237 25 86 127 178 -61 0
-238 77 0
-238 15 0
-238 -117 0
-238 39 0
-238 -105 0
238 -77 -15 117 -39 105 0
-239 -46 0
-239 -3 0
-239 -112 0
-239 134 0
-239 81 0
239 46 3 112 -134 -81 0
-240 130 0
-240 76 0
-240 190 0
-240 35 0
-240 -97 0
240 -130 -76 -190 -35 97 0
236 237 238 239 240 0
-241 -88 0
-241 145 0
-241 125 0
-241 48 0
-241 -83 0
241 88 -145 -125 -48 83 0
-242 188 0
-242 -177 0
-242 127 0
-242 170 0
-242 87 0
242 -188 177 -127 -170 -87 0
-243 42 0
-243 22 0
-243 -97 0
-243 -68 0
-243 9 0
243 -42 -22 97 68 -9 0
-244 -111 0
-244 74 0
-244 60 0
-244 -85 0
-244 144 0
244 111 -74 -60 85 -144 0
-245 -148 0
-245 -160 0
-245 -109 0
-245 -72 0
-245 -121 0
245 148 160 109 72 121 0
241 242 243 244 245 0
-246 186 0
-246 -171 0
-246 -101 0
-246 -78 0
-246 145 0
246 -186 171 101 78 -145 0
-247 141 0
-247 7 0
-247 -20 0
-247 187 0
-247 5 0
247 -141 -7 20 -187 -5 0
-248 -2 0
-248 -63 0
-248 10 0
-248 7 0
-248 -175 0
248 2 63 -10 -7 175 0
-249 -168 0
-249 -78 0
-249 -3 0
-249 69 0
-249 38 0
249 168 78 3 -69 -38 0
-250 14 0
-250 109 0
-250 120 0
-250 -80 0
-250 -157 0
250 -14 -109 -120 80 157 0
246 247 248 249 250 0
-251 74 0
-251 -39 0
-251 -90 0
-251 72 0
-251 95 0
251 -74 39 90 -72 -95 0
-252 113 0
-252 150 0
-252 157 0
-252 -189 0
-252 11 0
252 -113 -150 -157 189 -11 0
-253 -33 0
-253 150 0
-253 -81 0
-253 -109 0
-253 -136 0
253 33 -150 81 109 136 0
-254 -115 0
-254 -103 0
-254 91 0
-254 154 0
-254 70 0
254 115 103 -91 -154 -70 0
-255 -175 0
-255 -32 0
-255 112 0
-255 16 0
-255 -156 0
255 175 32 -112 -16 156 0
251 252 253 254 255 0
-256 -126 0
-256 181 0
-256 43 0
-256 -184 0
-256 -171 0
256 126 -181 -43 184 171 0
-257 -111 0
-257 114 0
-257 83 0
-257 6 0
-257 22 0
257 111 -114 -83 -6 -22 0
-258 75 0
-258 160 0
-258 88 0
-258 22 0
-258 179 0
258 -75 -160 -88 -22 -179 0
-259 34 0
-259 -53 0
-259 -87 0
-259 -188 0
-259 21 0
259 -34 53 87 188 -21 0
-260 -29 0
-260 -132 0
-260 88 0
-260 86 0
-260 -12 0
260 29 132 -88 -86 12 0
256 257 258 259 260 0
-261 90 0
-261 97 0
-261 163 0
-261 143 0
-261 -57 0
261 -90 -97 -163 -143 57 0
-262 162 0
-262 -93 0
-262 -148 0
-262 -46 0
-262 83 0
262 -162 93 148 46 -83 0
-263 55 0
-263 131 0
-263 -115 0
-263 75 0
-263 -157 0
263 -55 -131 115 -75 157 0
-264 -69 0
-264 164 0
-264 -86 0
-264 -174 0
-264 -102 0
264 69 -164 86 174 102 0
-265 -181 0
-265 -165 0
-265 -149 0
-265 -112 0
-265 -172 0
265 181 165 149 112 172 0
261 262 263 264 265 0
-266 -120 0
-266 -147 0
-266 158 0
-266 -115 0
-266 45 0
266 120 147 -158 115 -45 0
-267 -119 0
-267 142 0
-267 -20 0
-267 95 0
-267 -52 0
267 119 -142 20 -95 52 0
-268 -23 0
-268 64 0
-268 -171 0
-268 -53 0
-268 177 0
268 23 -64 171 53 -177 0
-269 -175 0
-269 98 0
-269 101 0
-269 168 0
-269 160 0
269 175 -98 -101 -168 -160 0
-270 -145 0
-270 -15 0
-270 66 0
-270 -43 0
-270 186 0
270 145 15 -66 43 -186 0
266 267 268 269 270 0
-271 -66 0
-271 182 0
-271 -118 0
-271 -9 0
-271 47 0
271 66 -182 118 9 -47 0
-272 -168 0
-272 180 0
-272 139 0
-272 -78 0
-272 -112 0
272 168 -180 -139 78 112 0
-273 -115 0
-273 -4 0
-273 146 0
-273 -22 0
-273 -103 0
273 115 4 -146 22 103 0
-274 -127 0
-274 184 0
-274 135 0
-274 -1 0
-274 44 0
274 127 -184 -135 1 -44 0
-275 24 0
-275 175 0
-275 -29 0
-275 -117 0
-275 -151 0
275 -24 -175 29 117 151 0
271 272 273 274 275 0
-276 -190 0
-276 -54 0
-276 -116 0
-276 117 0
-276 3 0
276 190 54 116 -117 -3 0
-277 -189 0
-277 -181 0
-277 -3 0
-277 54 0
-277 -103 0
277 189 181 3 -54 103 0
-278 173 0
-278 59 0
-278 -33 0
-278 -114 0
-278 -171 0
278 -173 -59 33 114 171 0
-279 -38 0
-279 -35 0
-279 174 0
-279 -173 0
-279 -80 0
279 38 35 -174 173 80 0
-280 21 0
-280 -29 0
-280 -96 0
-280 84 0
-280 -43 0
280 -21 29 96 -84 43 0
276 277 278 279 280 0
-281 65 0
-281 155 0
-281 129 0
-281 -64 0
-281 28 0
281 -65 -155 -129 64 -28 0
-282 171 0
-282 -103 0
-282 82 0
-282 -142 0
-282 -7 0
282 -171 103 -82 142 7 0
-283 99 0
-283 -87 0
-283 -22 0
-283 19 0
-283 -14 0
283 -99 87 22 -19 14 0
-284 3 0
-284 -121 0
-284 -32 0
-284 -60 0
-284 168 0
284 -3 121 32 60 -168 0
-285 25 0
-285 66 0
-285 61 0
-285 23 0
-285 -87 0
285 -25 -66 -61 -23 87 0
281 282 283 284 285 0
-286 128 0
-286 -38 0
-286 -3 0
-286 -185 0
-286 4 0
286 -128 38 3 185 -4 0
-287 71 0
-287 24 0
-287 54 0
-287 141 0
-287 52 0
287 -71 -24 -54 -141 -52 0
-288 87 0
-288 183 0
-288 -85 0
-288 -142 0
-288 -177 0
288 -87 -183 85 142 177 0
-289 155 0
-289 -5 0
-289 137 0
-289 135 0
-289 -71 0
289 -155 5 -137 -135 71 0
-290 135 0
-290 75 0
-290 16 0
-290 51 0
-290 76 0
290 -135 -75 -16 -51 -76 0
286 287 288 289 290 0
-291 176 0
-291 -126 0
-291 -60 0
-291 51 0
-291 8 0
291 -176 126 60 -51 -8 0
-292 16 0
-292 -155 0
-292 -116 0
-292 142 0
-292 -40 0
292 -16 155 116 -142 40 0
-293 11 0
-293 104 0
-293 132 0
-293 189 0
-293 -41 0
293 -11 -104 -132 -189 41 0
-294 16 0
-294 -43 0
-294 -185 0
-294 163 0
-294 -176 0
294 -16 43 185 -163 176 0
-295 -179 0
-295 10 0
-295 62 0
-295 -103 0
-295 -104 0
295 179 -10 -62 103 104 0
291 292 293 294 295 0
-296 90 0
-296 -112 0
-296 -167 0
-296 -44 0
-296 168 0
296 -90 112 167 44 -168 0
-297 -95 0
-297 -151 0
-297 -12 0
-297 126 0
-297 64 0
297 95 151 12 -126 -64 0
-298 -136 0
-298 -81 0
-298 -77 0
-298 -21 0
-298 5 0
298 136 81 77 21 -5 0
-299 -67 0
-299 -190 0
-299 22 0
-299 165 0
-299 6 0
299 67 190 -22 -165 -6 0
-300 53 0
-300 31 0
-300 -124 0
-300 -47 0
-300 112 0
300 -53 -31 124 47 -112 0
296 297 298 299 300 0
-301 108 0
-301 79 0
-301 -3 0
-301 166 0
-301 -91 0
301 -108 -79 3 -166 91 0
-302 -45 0
-302 -85 0
-302 54 0
-302 182 0
-302 179 0
302 45 85 -54 -182 -179 0
-303 107 0
-303 146 0
-303 174 0
-303 -104 0
-303 83 0
303 -107 -146 -174 104 -83 0
-304 -20 0
-304 158 0
-304 34 0
-304 -118 0
-304 -87 0
304 20 -158 -34 118 87 0
-305 124 0
-305 -167 0
-305 -113 0
-305 -99 0
-305 38 0
305 -124 167 113 99 -38 0
301 302 303 304 305 0
-306 119 0
-306 -95 0
-306 4 0
-306 176 0
-306 -121 0
306 -119 95 -4 -176 121 0
-307 68 0
-307 40 0
-307 -134 0
-307 -64 0
-307 -157 0
307 -68 -40 134 64 157 0
-308 -65 0
-308 -19 0
-308 183 0
-308 -44 0
-308 -73 0
308 65 19 -183 44 73 0
-309 108 0
-309 -128 0
-309 75 0
-309 185 0
-309 -173 0
309 -108 128 -75 -185 173 0
-310 -29 0
-310 -130 0
-310 46 0
-310 170 0
-310 -54 0
310 29 130 -46 -170 54 0
306 307 308 309 310 0
-311 183 0
-311 185 0
-311 -170 0
-311 -13 0
-311 -105 0
311 -183 -185 170 13 105 0
-312 56 0
-312 149 0
-312 165 0
-312 -47 0
-312 -119 0
312 -56 -149 -165 47 119 0
-313 91 0
-313 148 0
-313 15 0
-313 -59 0
-313 -69 0
313 -91 -148 -15 59 69 0
-314 135 0
-314 95 0
-314 66 0
-314 70 0
-314 23 0
314 -135 -95 -66 -70 -23 0
-315 -96 0
-315 53 0
-315 -83 0
-315 140 0
-315 -49 0
315 96 -53 83 -140 49 0
311 312 313 314 315 0
-316 -131 0
-316 -178 0
-316 -124 0
-316 6 0
-316 -188 0
316 131 178 124 -6 188 0
-317 -47 0
-317 138 0
-317 62 0
-317 -38 0
-317 -68 0
317 47 -138 -62 38 68 0
-318 -94 0
-318 -152 0
-318 -111 0
-318 76 0
-318 -178 0
318 94 152 111 -76 178 0
-319 -129 0
-319 -172 0
-319 127 0
-319 -175 0
-319 91 0
319 129 172 -127 175 -91 0
-320 108 0
-320 156 0
-320 53 0
-320 65 0
-320 -124 0
320 -108 -156 -53 -65 124 0
316 317 318 319 320 0
-321 16 0
-321 -112 0
-321 5 0
-321 -64 0
-321 -15 0
321 -16 112 -5 64 15 0
-322 161 0
-322 -171 0
-322 -66 0
-322 14 0
-322 -172 0
322 -161 171 66 -14 172 0
-323 103 0
-323 39 0
-323 28 0
-323 -168 0
-323 159 0
323 -103 -39 -28 168 -159 0
-324 -5 0
-324 31 0
-324 -87 0
-324 15 0
-324 28 0
324 5 -31 87 -15 -28 0
-325 118 0
-325 185 0
-325 10 0
-325 180 0
-325 189 0
325 -118 -185 -10 -180 -189 0
321 322 323 324 325 0
-326 33 0
-326 130 0
-326 -154 0
-326 -69 0
-326 158 0
326 -33 -130 154 69 -158 0
-327 -2 0
-327 121 0
-327 -86 0
-327 -9 0
-327 18 0
327 2 -121 86 9 -18 0
-328 56 0
-328 109 0
-328 -155 0
-328 54 0
-328 -114 0
328 -56 -109 155 -54 114 0
-329 143 0
-329 -176 0
-329 76 0
-329 168 0
-329 141 0
329 -143 176 -76 -168 -141 0
-330 153 0
-330 -69 0
-330 -46 0
-330 -164 0
-330 138 0
330 -153 69 46 164 -138 0
326 327 328 329 330 0
-331 12 0
-331 108 0
-331 -148 0
-331 -29 0
-331 -161 0
331 -12 -108 148 29 161 0
-332 91 0
-332 114 0
-332 -79 0
-332 86 0
-332 106 0
332 -91 -114 79 -86 -106 0
-333 72 0
-333 -186 0
-333 -185 0
-333 61 0
-333 -33 0
333 -72 186 185 -61 33 0
-334 82 0
-334 174 0
-334 -164 0
-334 -172 0
-334 112 0
334 -82 -174 164 172 -112 0
-335 70 0
-335 154 0
-335 -126 0
-335 -172 0
-335 -105 0
335 -70 -154 126 172 105 0
331 332 333 334 335 0
-336 -67 0
-336 128 0
-336 134 0
-336 -149 0
-336 17 0
336 67 -128 -134 149 -17 0
-337 175 0
-337 -122 0
-337 64 0
-337 -157 0
-337 -103 0
337 -175 122 -64 157 103 0
-338 62 0
-338 -40 0
-338 -3 0
-338 -35 0
-338 180 0
338 -62 40 3 35 -180 0
-339 152 0
-339 -43 0
-339 111 0
-339 -100 0
-339 19 0
339 -152 43 -111 100 -19 0
-340 76 0
-340 125 0
-340 21 0
-340 -121 0
-340 181 0
340 -76 -125 -21 121 -181 0
336 337 338 339 340 0
-341 29 0
-341 -118 0
-341 166 0
-341 -120 0
-341 -63 0
341 -29 118 -166 120 63 0
-342 -73 0
-342 -150 0
-342 -154 0
-342 -165 0
-342 186 0
342 73 150 154 165 -186 0
-343 -164 0
-343 96 0
-343 -64 0
-343 52 0
-343 71 0
343 164 -96 64 -52 -71 0
-344 -108 0
-344 -182 0
-344 31 0
-344 -80 0
-344 125 0
344 108 182 -31 80 -125 0
-345 93 0
-345 -175 0
-345 125 0
-345 72 0
-345 57 0
345 -93 175 -125 -72 -57 0
341 342 343 344 345 0
-346 28 0
-346 -37 0
-346 68 0
-346 94 0
-346 75 0
346 -28 37 -68 -94 -75 0
-347 54 0
-347 42 0
-347 155 0
-347 164 0
-347 -19 0
347 -54 -42 -155 -164 19 0
-348 147 0
-348 -43 0
-348 56 0
-348 -168 0
-348 59 0
348 -147 43 -56 168 -59 0
-349 179 0
-349 77 0
-349 -106 0
-349 172 0
-349 -169 0
349 -179 -77 106 -172 169 0
-350 -143 0
-350 129 0
-350 99 0
-350 72 0
-350 -92 0
350 143 -129 -99 -72 92 0
346 347 348 349 350 0
-351 -104 0
-351 -128 0
-351 -26 0
-351 47 0
-351 -95 0
351 104 128 26 -47 95 0
-352 -65 0
-352 -78 0
-352 -87 0
-352 -7 0
-352 79 0
352 65 78 87 7 -79 0
-353 -158 0
-353 -144 0
-353 -63 0
-353 -30 0
-353 54 0
353 158 144 63 30 -54 0
-354 -150 0
-354 -186 0
-354 103 0
-354 27 0
-354 -137 0
354 150 186 -103 -27 137 0
-355 61 0
-355 124 0
-355 55 0
-355 -23 0
-355 161 0
355 -61 -124 -55 23 -161 0
351 352 353 354 355 0
-356 -8 0
-356 -157 0
-356 -50 0
-356 136 0
-356 -137 0
356 8 157 50 -136 137 0
-357 158 0
-357 -10 0
-357 122 0
-357 112 0
-357 -40 0
357 -158 10 -122 -112 40 0
-358 -99 0
-358 -71 0
-358 -133 0
-358 -41 0
-358 -126 0
358 99 71 133 41 126 0
-359 117 0
-359 -167 0
-359 -62 0
-359 39 0
-359 -129 0
359 -117 167 62 -39 129 0
-360 80 0
-360 113 0
-360 116 0
-360 -73 0
-360 90 0
360 -80 -113 -116 73 -90 0
356 357 358 359 360 0
-361 58 0
-361 102 0
-361 -74 0
-361 8 0
-361 141 0
361 -58 -102 74 -8 -141 0
-362 185 0
-362 -53 0
-362 -69 0
-362 176 0
-362 8 0
362 -185 53 69 -176 -8 0
-363 -53 0
-363 178 0
-363 88 0
-363 -44 0
-363 136 0
363 53 -178 -88 44 -136 0
-364 74 0
-364 133 0
-364 140 0
-364 -172 0
-364 -124 0
364 -74 -133 -140 172 124 0
-365 101 0
-365 -173 0
-365 -144 0
-365 134 0
-365 -152 0
365 -101 173 144 -134 152 0
361 362 363 364 365 0
-366 100 0
-366 -30 0
-366 73 0
-366 -88 0
-366 186 0
366 -100 30 -73 88 -186 0
-367 111 0
-367 137 0
-367 126 0
-367 -183 0
-367 -15 0
367 -111 -137 -126 183 15 0
-368 66 0
-368 127 0
-368 -130 0
-368 68 0
-368 -70 0
368 -66 -127 130 -68 70 0
-369 -13 0
-369 139 0
-369 -6 0
-369 12 0
-369 54 0
369 13 -139 6 -12 -54 0
-370 -141 0
-370 25 0
-370 -44 0
-370 164 0
-370 15 0
370 141 -25 44 -164 -15 0
366 367 368 369 370 0
-371 9 0
-371 30 0
-371 24 0
-371 133 0
-371 116 0
371 -9 -30 -24 -133 -116 0
-372 -172 0
-372 91 0
-372 -5 0
-372 159 0
-372 90 0
372 172 -91 5 -159 -90 0
-373 -167 0
-373 171 0
-373 78 0
-373 190 0
-373 115 0
373 167 -171 -78 -190 -115 0
-374 -4 0
-374 156 0
-374 133 0
-374 1 0
-374 24 0
374 4 -156 -133 -1 -24 0
-375 -71 0
-375 -180 0
-375 46 0
-375 97 0
-375 -99 0
375 71 180 -46 -97 99 0
371 372 373 374 375 0
-376 -55 0
-376 -170 0
-376 159 0
-376 130 0
-376 12 0
376 55 170 -159 -130 -12 0
-377 54 0
-377 -24 0
-377 9 0
-377 -3 0
-377 -183 0
377 -54 24 -9 3 183 0
-378 171 0
-378 63 0
-378 83 0
-378 185 0
-378 85 0
378 -171 -63 -83 -185 -85 0
-379 -185 0
-379 -26 0
-379 -179 0
-379 166 0
-379 122 0
379 185 26 179 -166 -122 0
-380 -90 0
-380 -28 0
-380 72 0
-380 50 0
-380 -164 0
380 90 28 -72 -50 164 0
376 377 378 379 380 0
-381 -63 0
-381 158 0
-381 66 0
-381 10 0
-381 52 0
381 63 -158 -66 -10 -52 0
-382 84 0
-382 -184 0
-382 55 0
-382 98 0
-382 2 0
382 -84 184 -55 -98 -2 0
-383 -136 0
-383 127 0
-383 55 0
-383 152 0
-383 43 0
383 136 -127 -55 -152 -43 0
-384 -38 0
-384 -57 0
-384 11 0
-384 48 0
-384 47 0
384 38 57 -11 -48 -47 0
-385 177 0
-385 -127 0
-385 -138 0
-385 -61 0
-385 92 0
385 -177 127 138 61 -92 0
381 382 383 384 385 0
-386 16 0
-386 188 0
-386 182 0
-386 -23 0
-386 -79 0
386 -16 -188 -182 23 79 0
-387 22 0
-387 -99 0
-387 159 0
-387 -110 0
-387 -136 0
387 -22 99 -159 110 136 0
-388 122 0
-388 48 0
-388 117 0
-388 42 0
-388 -179 0
388 -122 -48 -117 -42 179 0
-389 -163 0
-389 161 0
-389 76 0
-389 60 0
-389 147 0
389 163 -161 -76 -60 -147 0
-390 -104 0
-390 -2 0
-390 -35 0
-390 -12 0
-390 -174 0
390 104 2 35 12 174 0
386 387 388 389 390 0
-391 136 0
-391 97 0
-391 185 0
-391 -74 0
-391 -144 0
391 -136 -97 -185 74 144 0
-392 -27 0
-392 132 0
-392 21 0
-392 -143 0
-392 51 0
392 27 -132 -21 143 -51 0
-393 -64 0
-393 -121 0
-393 166 0
-393 147 0
-393 -81 0
393 64 121 -166 -147 81 0
-394 -23 0
-394 157 0
-394 73 0
-394 151 0
-394 147 0
394 23 -157 -73 -151 -147 0
-395 98 0
-395 95 0
-395 -188 0
-395 104 0
-395 69 0
395 -98 -95 188 -104 -69 0
391 392 393 394 395 0
-396 57 0
-396 8 0
-396 -102 0
-396 90 0
-396 116 0
396 -57 -8 102 -90 -116 0
-397 -122 0
-397 -42 0
-397 156 0
-397 -138 0
-397 -120 0
397 122 42 -156 138 120 0
-398 -40 0
-398 119 0
-398 -123 0
-398 -88 0
-398 -26 0
398 40 -119 123 88 26 0
-399 131 0
-399 -151 0
-399 -35 0
-399 159 0
-399 -8 0
399 -131 151 35 -159 8 0
-400 -84 0
-400 -57 0
-400 78 0
-400 -102 0
-400 -101 0
400 84 57 -78 102 101 0
396 397 398 399 400 0
-401 172 0
-401 -123 0
-401 147 0
-401 -67 0
-401 -83 0
401 -172 123 -147 67 83 0
-402 -114 0
-402 -183 0
-402 138 0
-402 149 0
-402 135 0
402 114 183 -138 -149 -135 0
-403 -110 0
-403 176 0
-403 100 0
-403 -127 0
-403 -126 0
403 110 -176 -100 127 126 0
-404 99 0
-404 -57 0
-404 -169 0
-404 31 0
-404 138 0
404 -99 57 169 -31 -138 0
-405 -107 0
-405 -102 0
-405 -160 0
-405 28 0
-405 -116 0
405 107 102 160 -28 116 0
401 402 403 404 405 0
-406 -116 0
-406 9 0
-406 175 0
-406 -82 0
-406 -63 0
406 116 -9 -175 82 63 0
-407 -32 0
-407 -11 0
-407 90 0
-407 -26 0
-407 -108 0
407 32 11 -90 26 108 0
-408 -46 0
-408 -147 0
-408 -148 0
-408 -73 0
-408 40 0
408 46 147 148 73 -40 0
-409 -35 0
-409 -49 0
-409 89 0
-409 134 0
-409 -179 0
409 35 49 -89 -134 179 0
-410 16 0
-410 -63 0
-410 166 0
-410 -167 0
-410 -155 0
410 -16 63 -166 167 155 0
406 407 408 409 410 0
-411 145 0
-411 -65 0
-411 -111 0
-411 160 0
-411 -17 0
411 -145 65 111 -160 17 0
-412 -173 0
-412 -32 0
-412 -100 0
-412 -175 0
-412 -161 0
412 173 32 100 175 161 0
-413 -87 0
-413 -132 0
-413 45 0
-413 -12 0
-413 92 0
413 87 132 -45 12 -92 0
-414 -98 0
-414 -13 0
-414 -141 0
-414 -89 0
-414 3 0
414 98 13 141 89 -3 0
-415 155 0
-415 52 0
-415 125 0
-415 -121 0
-415 68 0
415 -155 -52 -125 121 -68 0
411 412 413 414 415 0
-416 -1 0
-416 -75 0
-416 -124 0
-416 4 0
-416 -49 0
416 1 75 124 -4 49 0
-417 155 0
-417 161 0
-417 -170 0
-417 -185 0
-417 120 0
417 -155 -161 170 185 -120 0
-418 -111 0
-418 -41 0
-418 -75 0
-418 -184 0
-418 140 0
418 111 41 75 184 -140 0
-419 169 0
-419 7 0
-419 20 0
-419 58 0
-419 182 0
419 -169 -7 -20 -58 -182 0
-420 -12 0
-420 -124 0
-420 -123 0
-420 143 0
-420 -102 0
420 12 124 123 -143 102 0
416 417 418 419 420 0
-421 -83 0
-421 88 0
-421 -178 0
-421 -185 0
-421 170 0
421 83 -88 178 185 -170 0
-422 -117 0
-422 46 0
-422 -173 0
-422 -22 0
-422 -135 0
422 117 -46 173 22 135 0
-423 15 0
-423 -140 0
-423 31 0
-423 171 0
-423 94 0
423 -15 140 -31 -171 -94 0
-424 100 0
-424 34 0
-424 -41 0
-424 -149 0
-424 -65 0
424 -100 -34 41 149 65 0
-425 -81 0
-425 58 0
-425 -50 0
-425 66 0
-425 167 0
425 81 -58 50 -66 -167 0
421 422 423 424 425 0
-426 -121 0
-426 -8 0
-426 50 0
-426 27 0
-426 -70 0
426 121 8 -50 -27 70 0
-427 40 0
-427 112 0
-427 41 0
-427 -187 0
-427 179 0
427 -40 -112 -41 187 -179 0
-428 -22 0
-428 -2 0
-428 21 0
-428 114 0
-428 -154 0
428 22 2 -21 -114 154 0
-429 86 0
-429 41 0
-429 -154 0
-429 11 0
-429 42 0
429 -86 -41 154 -11 -42 0
-430 91 0
-430 -93 0
-430 59 0
-430 37 0
-430 -113 0
430 -91 93 -59 -37 113 0
426 427 428 429 430 0
